InboundTrucks  = 8;
OutboundTrucks = 5;
InboundDoors   = 4;
OutboundDoors  = 4;
ReleaseTime    = [25,58,14,22,0,80,80,37];
UnloadTime     = [24,35,23,35,44,38,13,21];
LoadTime       = [9,8,12,5,12];
TransferTime   = [| 35,0,0,0,0 | 38,0,0,22,0 | 0,0,0,40,0 | 46,0,17,0,19 | 0,50,0,37,0 | 0,23,0,0,0 | 22,0,48,0,29 | 0,0,10,0,0 |];
